Route #1: 112 46 64 100 159 139 40 116 177 68 33 123 24 18 80
Route #2: 130 128 39 26 184 142 96 32 134 110 171 132 185 73 167 203 12 13 27
Route #3: 82 83 202 186 166 187 48 160 25
Route #4: 9 52 189 157 60 47 125 90 93 141 140 88 63 153 17 172 51 206 89 81 163 94 127 126 169
Route #5: 74 30 54 197 22 193 201 76 199 75 79 176 198 28 124 37 2 98
Route #6: 36 105 164 29 91 135 15 56 23 8 205 21 99 65 1 102 149 155 11 101 117
Route #7: 104 86 196 44 113 148 92 165 59 3 147 57 16 85 156 131 35 190 61 6 137
Route #8: 87 84 182 31 53 118 45 55 119 129 161 20 162 183 43 181 175 158 143 133 145
Route #9: 144 49 108 191 66 204 173 188 95 115 72 168 62 180 138 179 136 106 42 19 122 114
Route #10: 38 174 97 78 111 194 151 195 103 4 109 5 50 58 154 14 152 170 41 178
Route #11: 146 67 192 150 71 10 77 120 121 107 70 69 34 200 7
cost: 114048
